n_res = 4;
rc = [ 21, 33, 16, 29 ];
n_tasks = 30;
d = [ 7, 5, 8, 1, 3, 3, 1, 6, 2, 8, 2, 5, 5, 7, 10, 1, 2, 9, 3, 5, 7, 10, 4, 10, 9, 2, 6, 4, 5, 8 ];
rr = [| 0, 0, 10, 4, 0, 0, 2, 0, 0, 4, 0, 0, 5, 0, 10, 0, 0, 0, 0, 4, 0, 6, 0, 9, 0, 0, 6, 6, 0, 0
      | 7, 0, 8, 0, 9, 10, 2, 8, 0, 0, 3, 8, 7, 0, 9, 5, 1, 0, 3, 6, 10, 0, 2, 0, 0, 0, 0, 5, 2, 0
      | 0, 6, 5, 1, 0, 0, 9, 0, 10, 0, 2, 0, 0, 0, 4, 3, 0, 10, 3, 1, 0, 0, 0, 1, 6, 2, 6, 0, 0, 8
      | 1, 6, 1, 0, 10, 4, 0, 6, 0, 3, 8, 0, 0, 1, 8, 0, 0, 5, 0, 0, 6, 8, 2, 6, 0, 0, 9, 0, 0, 0 |];
suc = [ { 2 }, 
        { 1 }, 
        { 4 }, 
        { 3 }, 
        { 6 }, 
        { 5 }, 
        { 8 }, 
        { 7 }, 
        { 10 }, 
        { 9 }, 
        { 12 }, 
        { 11 }, 
        { 14 }, 
        { 13 }, 
        { 16 }, 
        { 15 }, 
        { 18 }, 
        { 17 }, 
        { 20 }, 
        { 19 }, 
        { 22 }, 
        { 21 }, 
        { 24 }, 
        { 23 }, 
        { 26 }, 
        { 25 }, 
        { 28 }, 
        { 27 }, 
        { 30 }, 
        { 29 }]; 
